4025.0, 4018.0, 3061.0, 3049.0, 2093.0, 2093.0, 2091.0, 2089.0, 2085.0, 2077.0, 2077.0, 2073.0, 2069.0, 2063.0, 2063.0, 2059.0, 2059.0, 2052.0, 2048.0, 2048.0, 2043.0, 2043.0, 2038.0, 2037.0, 2034.0, 2032.0, 2031.0, 2029.0, 2028.0, 2026.0, 2024.0, 2020.0, 2020.0, 2015.0, 2015.0, 2015.0, 2012.0, 2011.0, 2008.0, 2006.0, 2002.0, 2002.0, 2002.0, 2000.0, 1999.0, 1999.0, 1997.0, 1997.0, 1995.0, 1994.0, 1993.0, 1990.0, 1990.0, 1990.0, 1990.0, 1988.0, 1988.0, 1986.0, 1986.0, 1986.0, 1986.0, 1984.0, 1983.0, 1983.0, 1981.0, 1979.0, 1979.0, 1977.0, 1974.0, 1972.0, 1972.0, 1972.0, 1970.0, 1970.0, 1969.0, 1969.0, 1967.0, 1966.0, 1966.0, 1964.0, 1964.0, 1963.0, 1963.0, 1963.0, 1961.0, 1961.0, 1960.0, 1959.0, 1959.0, 1959.0, 1959.0, 1959.0, 1959.0, 1957.0, 1957.0, 1957.0, 1955.0, 1955.0, 1955.0, 1954.0, 1954.0, 1954.0, 1953.0, 1952.0, 1952.0, 1952.0, 1952.0, 1952.0, 1952.0, 1952.0, 1952.0, 1951.0, 1951.0, 1951.0, 1951.0, 1951.0, 1950.0, 1950.0, 1950.0, 1950.0, 1950.0, 1950.0, 1950.0, 1949.0, 1949.0, 1949.0, 1949.0, 1949.0, 1949.0, 1949.0, 1949.0, 1949.0, 1949.0, 1949.0, 1949.0, 1949.0, 1949.0, 1949.0, 1949.0, 1949.0, 1947.0, 1947.0, 1947.0, 1947.0, 1947.0, 1947.0, 1947.0, 1947.0, 1947.0, 1947.0, 1947.0, 1947.0, 1947.0, 1947.0, 1947.0, 1947.0, 1947.0, 1947.0, 1947.0, 1947.0, 1946.0, 1946.0, 1946.0, 1946.0, 1946.0, 1946.0, 1946.0, 1946.0, 1946.0, 1946.0, 1945.0, 1944.0, 1944.0, 1944.0, 1944.0, 1944.0, 1944.0, 1944.0, 1944.0, 1942.0, 1942.0, 1942.0, 1942.0, 1942.0, 1942.0, 1942.0, 1942.0, 1942.0, 1940.0, 1940.0, 1940.0, 1940.0, 1940.0, 1940.0, 1940.0, 1940.0, 1940.0, 1940.0, 1939.0, 1939.0, 
penalties info:
(0, 0, 0)
2
960.0
1
0
0
